25
    1     7     7
    2    17    17
    3    11    11
    4    10    10
    5    13    13
    6    19    19
    7    14    14
    8     7     7
    9    15    15
   10    13    13
   11    13    13
   12    12    12
   13    16    16
   14     5     5
   15     7     7
   16    11    11
   17    12    12
   18    14    14
   19    13    13
   20     6     6
   21    11    11
   22     2     2
   23    14    14
   24     6     6
   25    15    15
44
